c 9th DIMACS Implementation Challenge: Shortest Paths
c http://www.dis.uniroma1.it/~challenge9
c TIGER/Line graph USA-road-t.NY
c
p sp 10 24
c graph contains 10 nodes and 24 arcs
c
a 1 3 2 A2
a 3 1 2 A2
a 3 4 3 D1
a 4 3 3 D1
a 3 10 7 D1
a 10 3 7 D1
a 4 7 1 D1
a 7 4 1 D1
a 7 9 1 D1
a 9 7 1 D1
a 9 10 1 D1
a 10 9 1 D1
a 5 10 2 A3
a 10 5 2 A3
a 9 8 3 D1
a 8 9 3 D1
a 7 6 1 A2
a 6 7 1 A2
a 5 8 2 A3
a 8 5 2 A3
a 6 8 2 D1
a 8 6 2 D1
a 6 2 2 D1
a 2 6 2 D1
